WARNING: for repeatability, setting FPU to use double precision
============================[ Problem Statistics ]=============================
|                                                                             |
|  Number of variables:            50                                         |
|  Number of clauses:             218                                         |
|  Parse time:                   0.00 s                                       |
|                                                                             |
============================[ Search Statistics ]==============================
| Conflicts |          ORIGINAL         |          LEARNT          | Progress |
|           |    Vars  Clauses Literals |    Limit  Clauses Lit/Cl |          |
===============================================================================
===============================================================================
restarts              : 1
conflicts             : 36             (25334 /sec)
decisions             : 44             (0.00 % random) (30964 /sec)
propagations          : 530            (372977 /sec)
conflict literals     : 105            (28.08 % deleted)
Memory used           : 20.00 MB
CPU time              : 0.001421 s

UNSATISFIABLE
